NAME : A-n34-k5
COMMENT : (Augerat et al, Min no of trucks: 5, Optimal value: 778)
TYPE : CVRP
DIMENSION : 34
EDGE_WEIGHT_TYPE : EUC_2D 
CAPACITY : 100
NODE_COORD_SECTION 
 1 73 39
 2 67 91
 3 39 21
 4 3 9
 5 97 15
 6 91 65
 7 55 75
 8 55 71
 9 57 85
 10 21 15
 11 47 57
 12 51 97
 13 11 11
 14 43 59
 15 63 69
 16 55 77
 17 35 11
 18 27 91
 19 49 25
 20 29 93
 21 71 27
 22 31 43
 23 27 9
 24 67 99
 25 87 81
 26 23 81
 27 89 33
 28 71 91
 29 19 77
 30 65 77
 31 87 79
 32 19 83
 33 1 59
 34 55 7
DEMAND_SECTION 
1 0 
2 23 
3 3 
4 24 
5 15 
6 15 
7 24 
8 7 
9 25 
10 13 
11 5 
12 7 
13 5 
14 14 
15 13 
16 5 
17 24 
18 15 
19 9 
20 16 
21 13 
22 16 
23 13 
24 24 
25 20 
26 23 
27 20 
28 3 
29 15 
30 12 
31 19 
32 4 
33 15 
34 1 
DEPOT_SECTION 
 1  
 -1  
NODE_PRIORITY_SECTION
1 0
2 2
3 2
4 1
5 1
6 2
7 3
8 4
9 3
10 1
11 4
12 2
13 1
14 4
15 3
16 3
17 2
18 2
19 3
20 2
21 2
22 3
23 1
24 2
25 2
26 2
27 2
28 2
29 2
30 3
31 2
32 2
33 2
34 1
EOF
